// FEASIBLE
// COST 839
nNurses=839;
minHours=2;
maxPresence=12;
maxHours=10;
maxConsec=6;
hoursDay=24;
demand=[278 284 281 280 277 279 276 276 281 279 276 277 278 272 268 281 277 276 275 285 283 279 280 275];
